p cnf 20 11
-2 -5 0
2 5 0
-4 -6 0
4 6 0
1 -7 0
5 -7 0
-1 -5 7 0
1 -8 0
3 -8 0
-1 -3 8 0
8 -9 0
6 -9 0
-8 -6 9 0
-7 10 0
-9 10 0
7 9 -10 0
-10 11 0
-2 11 0
10 2 -11 0
11 0
-11 -1 -2 -3 -8 -4 5 7 6 9 10 0
-11 -1 -2 -3 -8 -6 -9 -10 5 7 4 0
-11 -1 -2 -4 5 3 7 8 6 9 10 0
-11 -1 -2 -6 5 3 7 8 4 9 10 0
-11 -1 -5 -10 -3 -7 -8 -4 2 6 9 0
-11 -1 -5 -10 -3 -7 -8 -6 -9 2 4 0
-11 -1 -5 -10 -7 -4 2 3 8 9 6 0
-11 -1 -5 -10 -7 -6 2 3 8 4 9 0
-11 -3 -2 -4 1 7 8 5 9 6 10 0
-11 -2 -4 1 7 8 3 5 9 6 10 0
-11 -2 -3 -6 1 7 8 5 9 10 4 0
-11 -2 -6 1 7 8 5 9 3 10 4 0
